
Log started (V11.0.0) Sun Apr 13 14:02:42 2008

Tried aggregator 1 time.
Reduced MIP has 230 rows, 6001 columns, and 12030 nonzeros.
Presolve time =    0.05 sec.
Clique table members: 200.
MIP emphasis: balance optimality and feasibility.
MIP search method: dynamic search.
Parallel mode: none, using 1 thread.
Root relaxation solution time =    0.14 sec.

        Nodes                                         Cuts/
   Node  Left     Objective  IInf  Best Integer     Best Node    ItCnt     Gap

*     0+    0                        11393.0000       27.7601      679   99.76%
*     0+    0                           45.0000       27.7601      679   38.31%
      0     0       28.0000    55       45.0000      Fract: 9      738   37.78%
*     0+    0                           42.0000       28.0000      738   33.33%
      0     0       28.0000    53       42.0000   Impl Bds: 1      787   33.33%
*     0+    0                           40.0000       28.0000      787   30.00%
      0     0       28.0000    58       40.0000   Impl Bds: 1      838   30.00%
*     0+    0                           38.0000       28.0000      838   26.32%
*     0+    0                           37.0000       28.0000      838   24.32%
*     0+    0                           36.0000       28.0000      838   22.22%

Repeating presolve.
Tried aggregator 1 time.
MIP Presolve eliminated 0 rows and 3897 columns.
Aggregator did 1 substitutions.
Reduced MIP has 229 rows, 2103 columns, and 4234 nonzeros.
Tried aggregator 1 time.
Represolve time =    0.09 sec.
Clique table members: 534.
MIP emphasis: balance optimality and feasibility.
MIP search method: dynamic search.
Parallel mode: none, using 1 thread.
Root relaxation solution time =    0.05 sec.

        Nodes                                         Cuts/
   Node  Left     Objective  IInf  Best Integer     Best Node    ItCnt     Gap

      0     0       28.0000    57       36.0000       28.0000      504   22.22%
*     0+    0                           35.0000       28.0000      504   20.00%
*     0+    0                           34.0000       28.0000      504   17.65%
      0     2       28.0000    57       34.0000       28.0000      504   17.65%
*    10+    9                           33.0000       28.0000      629   15.15%
*    20+   18                           32.0000       28.0000      769   12.50%
    100    91       29.0000    82       32.0000       29.0000     2527    9.37%
*   120+   74                           31.0000       29.0000     3129    6.45%
    200   145       30.0000    36       31.0000       29.0000     5493    6.45%
    300   230       30.0000    40       31.0000       29.0000     8617    6.45%
    400   302       29.0000    52       31.0000       29.0000    12343    6.45%
    500   378       29.0000    60       31.0000       29.0000    17528    6.45%
    600   380       30.0000    59       31.0000       29.0000    25049    6.45%
    700   388       30.0000    40       31.0000       29.0000    31575    6.45%
    800   404       30.0000    53       31.0000       29.0000    37876    6.45%
    900   405       30.0000    57       31.0000       29.0000    48086    6.45%
   1000   435       30.0000    54       31.0000       29.0000    53069    6.45%
Elapsed time =  21.81 sec. (tree size =  3.13 MB, solutions = 12)
   1100   517       30.0000    45       31.0000       29.0000    61837    6.45%
   1200   606       30.0000    67       31.0000       29.0000    68114    6.45%
   1300   694       30.0000    78       31.0000       29.0000    75400    6.45%
   1400   779       30.0000    74       31.0000       29.0000    84112    6.45%
   1500   865       30.0000    52       31.0000       29.0000    91484    6.45%
   1600   953       30.0000    77       31.0000       29.0000   100385    6.45%
   1700  1044       30.0000    44       31.0000       29.0000   107214    6.45%
   1800  1131       30.0000    80       31.0000       29.0000   112656    6.45%
   1900  1224       30.0000    74       31.0000       29.0000   117547    6.45%
   2000  1315       30.0000    98       31.0000       29.0000   121872    6.45%
Elapsed time =  42.86 sec. (tree size = 11.48 MB, solutions = 12)
   2100  1402       30.0000    33       31.0000       29.0000   128610    6.45%
   2200  1489       30.0000    61       31.0000       29.0000   134718    6.45%
   2300  1571       30.0000   116       31.0000       29.0000   140507    6.45%
   2400  1660       30.0000    38       31.0000       29.0000   147345    6.45%
*  2486+   12                           30.0000       29.0000   152437    3.33%

Cover cuts applied:  579
Flow cuts applied:  2
Mixed integer rounding cuts applied:  40
Zero-half cuts applied:  8
Gomory fractional cuts applied:  7

Solution pool: 13 solutions saved.

MIP - Integer optimal solution:  Objective = 3.0000000000e+001
Solution time =   55.52 sec.  Iterations = 166006  Nodes = 2498


Incumbent solution
Variable Name           Solution Value
Cmax                         30.000000
X_1_22                        1.000000
X_2_28                        1.000000
X_3_8                         1.000000
X_4_22                        1.000000
X_5_16                        1.000000
X_6_4                         1.000000
X_7_6                         1.000000
X_8_27                        1.000000
X_9_8                         1.000000
X_10_10                       1.000000
X_11_23                       1.000000
X_12_17                       1.000000
X_13_20                       1.000000
X_14_19                       1.000000
X_15_6                        1.000000
X_16_2                        1.000000
X_17_12                       1.000000
X_18_29                       1.000000
X_19_19                       1.000000
X_20_4                        1.000000
X_21_17                       1.000000
X_22_26                       1.000000
X_23_10                       1.000000
X_24_23                       1.000000
X_25_19                       1.000000
X_26_27                       1.000000
X_27_6                        1.000000
X_28_13                       1.000000
X_29_20                       1.000000
X_30_14                       1.000000
X_31_29                       1.000000
X_32_13                       1.000000
X_33_16                       1.000000
X_34_14                       1.000000
X_35_25                       1.000000
X_36_12                       1.000000
X_37_9                        1.000000
X_38_17                       1.000000
X_39_3                        1.000000
X_40_20                       1.000000
X_41_11                       1.000000
X_42_7                        1.000000
X_43_19                       1.000000
X_44_11                       1.000000
X_45_8                        1.000000
X_46_10                       1.000000
X_47_3                        1.000000
X_48_15                       1.000000
X_49_26                       1.000000
X_50_23                       1.000000
X_51_17                       1.000000
X_52_3                        1.000000
X_53_4                        1.000000
X_54_21                       1.000000
X_55_13                       1.000000
X_56_16                       1.000000
X_57_13                       1.000000
X_58_8                        1.000000
X_59_6                        1.000000
X_60_7                        1.000000
X_61_21                       1.000000
X_62_9                        1.000000
X_63_5                        1.000000
X_64_4                        1.000000
X_65_13                       1.000000
X_66_1                        1.000000
X_67_27                       1.000000
X_68_2                        1.000000
X_69_25                       1.000000
X_70_7                        1.000000
X_71_4                        1.000000
X_72_12                       1.000000
X_73_3                        1.000000
X_74_15                       1.000000
X_75_24                       1.000000
X_76_14                       1.000000
X_77_6                        1.000000
X_78_3                        1.000000
X_79_12                       1.000000
X_80_28                       1.000000
X_81_24                       1.000000
X_82_17                       1.000000
X_83_11                       1.000000
X_84_8                        1.000000
X_85_25                       1.000000
X_86_14                       1.000000
X_87_26                       1.000000
X_88_19                       1.000000
X_89_24                       1.000000
X_90_16                       1.000000
X_91_16                       1.000000
X_92_8                        1.000000
X_93_10                       1.000000
X_94_17                       1.000000
X_95_18                       1.000000
X_96_10                       1.000000
X_97_26                       1.000000
X_98_19                       1.000000
X_99_15                       1.000000
X_100_5                       1.000000
X_101_19                      1.000000
X_102_16                      1.000000
X_103_7                       1.000000
X_104_6                       1.000000
X_105_9                       1.000000
X_106_3                       1.000000
X_107_2                       1.000000
X_108_20                      1.000000
X_109_10                      1.000000
X_110_25                      1.000000
X_111_10                      1.000000
X_112_9                       1.000000
X_113_9                       1.000000
X_114_28                      1.000000
X_115_12                      1.000000
X_116_18                      1.000000
X_117_4                       1.000000
X_118_21                      1.000000
X_119_29                      1.000000
X_120_12                      1.000000
X_121_27                      1.000000
X_122_3                       1.000000
X_123_13                      1.000000
X_124_16                      1.000000
X_125_6                       1.000000
X_126_15                      1.000000
X_127_29                      1.000000
X_128_30                      1.000000
X_129_27                      1.000000
X_130_25                      1.000000
X_131_12                      1.000000
X_132_14                      1.000000
X_133_27                      1.000000
X_134_2                       1.000000
X_135_12                      1.000000
X_136_11                      1.000000
X_137_17                      1.000000
X_138_5                       1.000000
X_139_21                      1.000000
X_140_15                      1.000000
X_141_29                      1.000000
X_142_4                       1.000000
X_143_18                      1.000000
X_144_9                       1.000000
X_145_5                       1.000000
X_146_21                      1.000000
X_147_23                      1.000000
X_148_12                      1.000000
X_149_26                      1.000000
X_150_16                      1.000000
X_151_5                       1.000000
X_152_23                      1.000000
X_153_22                      1.000000
X_154_25                      1.000000
X_155_7                       1.000000
X_156_1                       1.000000
X_157_26                      1.000000
X_158_9                       1.000000
X_159_3                       1.000000
X_160_21                      1.000000
X_161_7                       1.000000
X_162_4                       1.000000
X_163_19                      1.000000
X_164_6                       1.000000
X_165_22                      1.000000
X_166_11                      1.000000
X_167_17                      1.000000
X_168_2                       1.000000
X_169_22                      1.000000
X_170_27                      1.000000
X_171_11                      1.000000
X_172_18                      1.000000
X_173_19                      1.000000
X_174_13                      1.000000
X_175_16                      1.000000
X_176_4                       1.000000
X_177_22                      1.000000
X_178_30                      1.000000
X_179_1                       1.000000
X_180_1                       1.000000
X_181_21                      1.000000
X_182_30                      1.000000
X_183_21                      1.000000
X_184_20                      1.000000
X_185_10                      1.000000
X_186_25                      1.000000
X_187_23                      1.000000
X_188_1                       1.000000
X_189_11                      1.000000
X_190_1                       1.000000
X_191_10                      1.000000
X_192_20                      1.000000
X_193_17                      1.000000
X_194_9                       1.000000
X_195_29                      1.000000
X_196_11                      1.000000
X_197_6                       1.000000
X_198_14                      1.000000
X_199_14                      1.000000
X_200_26                      1.000000
All other variables in the range 1-6001 are 0.
